; benchmark generated from python API
(set-info :status unknown)
(declare-fun cell_1_7 () Int)
(declare-fun cell_1_8 () Int)
(declare-fun cell_2_2 () Int)
(declare-fun cell_2_3 () Int)
(declare-fun cell_3_5 () Int)
(declare-fun cell_3_6 () Int)
(declare-fun cell_4_1 () Int)
(declare-fun cell_4_2 () Int)
(declare-fun cell_5_7 () Int)
(declare-fun cell_5_9 () Int)
(declare-fun cell_6_6 () Int)
(declare-fun cell_7_1 () Int)
(declare-fun cell_8_4 () Int)
(declare-fun cell_9_9 () Int)
(declare-fun cell_1_1 () Int)
(declare-fun cell_2_1 () Int)
(declare-fun cell_3_1 () Int)
(declare-fun cell_5_1 () Int)
(declare-fun cell_6_1 () Int)
(declare-fun cell_8_1 () Int)
(declare-fun cell_9_1 () Int)
(declare-fun cell_1_2 () Int)
(declare-fun cell_3_2 () Int)
(declare-fun cell_5_2 () Int)
(declare-fun cell_6_2 () Int)
(declare-fun cell_7_2 () Int)
(declare-fun cell_8_2 () Int)
(declare-fun cell_9_2 () Int)
(declare-fun cell_1_3 () Int)
(declare-fun cell_3_3 () Int)
(declare-fun cell_4_3 () Int)
(declare-fun cell_5_3 () Int)
(declare-fun cell_6_3 () Int)
(declare-fun cell_7_3 () Int)
(declare-fun cell_8_3 () Int)
(declare-fun cell_9_3 () Int)
(declare-fun cell_1_4 () Int)
(declare-fun cell_2_4 () Int)
(declare-fun cell_3_4 () Int)
(declare-fun cell_4_4 () Int)
(declare-fun cell_5_4 () Int)
(declare-fun cell_6_4 () Int)
(declare-fun cell_7_4 () Int)
(declare-fun cell_9_4 () Int)
(declare-fun cell_1_5 () Int)
(declare-fun cell_2_5 () Int)
(declare-fun cell_4_5 () Int)
(declare-fun cell_5_5 () Int)
(declare-fun cell_6_5 () Int)
(declare-fun cell_7_5 () Int)
(declare-fun cell_8_5 () Int)
(declare-fun cell_9_5 () Int)
(declare-fun cell_1_6 () Int)
(declare-fun cell_2_6 () Int)
(declare-fun cell_4_6 () Int)
(declare-fun cell_5_6 () Int)
(declare-fun cell_7_6 () Int)
(declare-fun cell_8_6 () Int)
(declare-fun cell_9_6 () Int)
(declare-fun cell_2_7 () Int)
(declare-fun cell_3_7 () Int)
(declare-fun cell_4_7 () Int)
(declare-fun cell_6_7 () Int)
(declare-fun cell_7_7 () Int)
(declare-fun cell_8_7 () Int)
(declare-fun cell_9_7 () Int)
(declare-fun cell_2_8 () Int)
(declare-fun cell_3_8 () Int)
(declare-fun cell_4_8 () Int)
(declare-fun cell_5_8 () Int)
(declare-fun cell_6_8 () Int)
(declare-fun cell_7_8 () Int)
(declare-fun cell_8_8 () Int)
(declare-fun cell_9_8 () Int)
(declare-fun cell_1_9 () Int)
(declare-fun cell_2_9 () Int)
(declare-fun cell_3_9 () Int)
(declare-fun cell_4_9 () Int)
(declare-fun cell_6_9 () Int)
(declare-fun cell_7_9 () Int)
(declare-fun cell_8_9 () Int)
(assert
 (= cell_1_7 2))
(assert
 (= cell_1_8 1))
(assert
 (= cell_2_2 2))
(assert
 (= cell_2_3 1))
(assert
 (= cell_3_5 1))
(assert
 (= cell_3_6 2))
(assert
 (= cell_4_1 2))
(assert
 (= cell_4_2 1))
(assert
 (= cell_5_7 1))
(assert
 (= cell_5_9 2))
(assert
 (= cell_6_6 1))
(assert
 (= cell_7_1 1))
(assert
 (= cell_8_4 1))
(assert
 (= cell_9_9 1))
(assert
 (let (($x2034 (= cell_1_1 9)))
 (let (($x1311 (= cell_1_1 8)))
 (let (($x858 (= cell_1_1 7)))
 (let (($x1504 (= cell_1_1 6)))
 (let (($x1140 (= cell_1_1 5)))
 (let (($x1800 (= cell_1_1 4)))
 (let (($x485 (= cell_1_1 3)))
 (let (($x448 (= cell_1_1 2)))
 (let (($x2312 (= cell_1_1 1)))
 (or $x2312 $x448 $x485 $x1800 $x1140 $x1504 $x858 $x1311 $x2034)))))))))))
(assert
 (let (($x815 (= cell_2_1 9)))
 (let (($x2039 (= cell_2_1 8)))
 (let (($x2002 (= cell_2_1 7)))
 (let (($x822 (= cell_2_1 6)))
 (let (($x7519 (= cell_2_1 5)))
 (let (($x3665 (= cell_2_1 4)))
 (let (($x3940 (= cell_2_1 3)))
 (let (($x3857 (= cell_2_1 2)))
 (let (($x2574 (= cell_2_1 1)))
 (or $x2574 $x3857 $x3940 $x3665 $x7519 $x822 $x2002 $x2039 $x815)))))))))))
(assert
 (let (($x3434 (= cell_3_1 9)))
 (let (($x1303 (= cell_3_1 8)))
 (let (($x1840 (= cell_3_1 7)))
 (let (($x3668 (= cell_3_1 6)))
 (let (($x1224 (= cell_3_1 5)))
 (let (($x1774 (= cell_3_1 4)))
 (let (($x2621 (= cell_3_1 3)))
 (let (($x612 (= cell_3_1 2)))
 (let (($x1477 (= cell_3_1 1)))
 (or $x1477 $x612 $x2621 $x1774 $x1224 $x3668 $x1840 $x1303 $x3434)))))))))))
(assert
 (let (($x2901 (= cell_4_1 2)))
 (or (= cell_4_1 1) $x2901 (= cell_4_1 3) (= cell_4_1 4) (= cell_4_1 5) (= cell_4_1 6) (= cell_4_1 7) (= cell_4_1 8) (= cell_4_1 9))))
(assert
 (let (($x237 (= cell_5_1 9)))
 (let (($x793 (= cell_5_1 8)))
 (let (($x1079 (= cell_5_1 7)))
 (let (($x2481 (= cell_5_1 6)))
 (let (($x2024 (= cell_5_1 5)))
 (let (($x2774 (= cell_5_1 4)))
 (let (($x4036 (= cell_5_1 3)))
 (let (($x14 (= cell_5_1 2)))
 (let (($x2105 (= cell_5_1 1)))
 (or $x2105 $x14 $x4036 $x2774 $x2024 $x2481 $x1079 $x793 $x237)))))))))))
(assert
 (let (($x3812 (= cell_6_1 9)))
 (let (($x1515 (= cell_6_1 8)))
 (let (($x613 (= cell_6_1 7)))
 (let (($x3463 (= cell_6_1 6)))
 (let (($x2426 (= cell_6_1 5)))
 (let (($x1662 (= cell_6_1 4)))
 (let (($x3416 (= cell_6_1 3)))
 (let (($x7851 (= cell_6_1 2)))
 (let (($x2795 (= cell_6_1 1)))
 (or $x2795 $x7851 $x3416 $x1662 $x2426 $x3463 $x613 $x1515 $x3812)))))))))))
(assert
 (let (($x2551 (= cell_7_1 1)))
 (or $x2551 (= cell_7_1 2) (= cell_7_1 3) (= cell_7_1 4) (= cell_7_1 5) (= cell_7_1 6) (= cell_7_1 7) (= cell_7_1 8) (= cell_7_1 9))))
(assert
 (let (($x1667 (= cell_8_1 9)))
 (let (($x561 (= cell_8_1 8)))
 (let (($x3115 (= cell_8_1 7)))
 (let (($x7659 (= cell_8_1 6)))
 (let (($x1184 (= cell_8_1 5)))
 (let (($x37 (= cell_8_1 4)))
 (let (($x1042 (= cell_8_1 3)))
 (let (($x3806 (= cell_8_1 2)))
 (let (($x1571 (= cell_8_1 1)))
 (or $x1571 $x3806 $x1042 $x37 $x1184 $x7659 $x3115 $x561 $x1667)))))))))))
(assert
 (let (($x1018 (= cell_9_1 9)))
 (let (($x1153 (= cell_9_1 8)))
 (let (($x2104 (= cell_9_1 7)))
 (let (($x2886 (= cell_9_1 6)))
 (let (($x1849 (= cell_9_1 5)))
 (let (($x1199 (= cell_9_1 4)))
 (let (($x4246 (= cell_9_1 3)))
 (let (($x1736 (= cell_9_1 2)))
 (let (($x3271 (= cell_9_1 1)))
 (or $x3271 $x1736 $x4246 $x1199 $x1849 $x2886 $x2104 $x1153 $x1018)))))))))))
(assert
 (let (($x3168 (= cell_1_2 9)))
 (let (($x2677 (= cell_1_2 8)))
 (let (($x576 (= cell_1_2 7)))
 (let (($x2710 (= cell_1_2 6)))
 (let (($x984 (= cell_1_2 5)))
 (let (($x2310 (= cell_1_2 4)))
 (let (($x7349 (= cell_1_2 3)))
 (let (($x799 (= cell_1_2 2)))
 (let (($x40 (= cell_1_2 1)))
 (or $x40 $x799 $x7349 $x2310 $x984 $x2710 $x576 $x2677 $x3168)))))))))))
(assert
 (let (($x1913 (= cell_2_2 2)))
 (or (= cell_2_2 1) $x1913 (= cell_2_2 3) (= cell_2_2 4) (= cell_2_2 5) (= cell_2_2 6) (= cell_2_2 7) (= cell_2_2 8) (= cell_2_2 9))))
(assert
 (let (($x1544 (= cell_3_2 9)))
 (let (($x284 (= cell_3_2 8)))
 (let (($x1438 (= cell_3_2 7)))
 (let (($x2996 (= cell_3_2 6)))
 (let (($x2475 (= cell_3_2 5)))
 (let (($x226 (= cell_3_2 4)))
 (let (($x1542 (= cell_3_2 3)))
 (let (($x30 (= cell_3_2 2)))
 (let (($x6846 (= cell_3_2 1)))
 (or $x6846 $x30 $x1542 $x226 $x2475 $x2996 $x1438 $x284 $x1544)))))))))))
(assert
 (let (($x2661 (= cell_4_2 1)))
 (or $x2661 (= cell_4_2 2) (= cell_4_2 3) (= cell_4_2 4) (= cell_4_2 5) (= cell_4_2 6) (= cell_4_2 7) (= cell_4_2 8) (= cell_4_2 9))))
(assert
 (let (($x539 (= cell_5_2 9)))
 (let (($x3941 (= cell_5_2 8)))
 (let (($x6701 (= cell_5_2 7)))
 (let (($x1373 (= cell_5_2 6)))
 (let (($x1856 (= cell_5_2 5)))
 (let (($x183 (= cell_5_2 4)))
 (let (($x2555 (= cell_5_2 3)))
 (let (($x3437 (= cell_5_2 2)))
 (let (($x3255 (= cell_5_2 1)))
 (or $x3255 $x3437 $x2555 $x183 $x1856 $x1373 $x6701 $x3941 $x539)))))))))))
(assert
 (let (($x2415 (= cell_6_2 9)))
 (let (($x2350 (= cell_6_2 8)))
 (let (($x1350 (= cell_6_2 7)))
 (let (($x4133 (= cell_6_2 6)))
 (let (($x2148 (= cell_6_2 5)))
 (let (($x908 (= cell_6_2 4)))
 (let (($x2529 (= cell_6_2 3)))
 (let (($x1468 (= cell_6_2 2)))
 (let (($x2198 (= cell_6_2 1)))
 (or $x2198 $x1468 $x2529 $x908 $x2148 $x4133 $x1350 $x2350 $x2415)))))))))))
(assert
 (let (($x389 (= cell_7_2 2)))
 (let (($x2129 (= cell_7_2 1)))
 (or $x2129 $x389 (= cell_7_2 3) (= cell_7_2 4) (= cell_7_2 5) (= cell_7_2 6) (= cell_7_2 7) (= cell_7_2 8) (= cell_7_2 9)))))
(assert
 (let (($x1698 (= cell_8_2 9)))
 (let (($x2372 (= cell_8_2 8)))
 (let (($x4167 (= cell_8_2 7)))
 (let (($x1678 (= cell_8_2 6)))
 (let (($x3647 (= cell_8_2 5)))
 (let (($x3528 (= cell_8_2 4)))
 (let (($x1132 (= cell_8_2 3)))
 (let (($x727 (= cell_8_2 2)))
 (let (($x3083 (= cell_8_2 1)))
 (or $x3083 $x727 $x1132 $x3528 $x3647 $x1678 $x4167 $x2372 $x1698)))))))))))
(assert
 (let (($x117 (= cell_9_2 9)))
 (let (($x1086 (= cell_9_2 8)))
 (let (($x535 (= cell_9_2 7)))
 (let (($x1582 (= cell_9_2 6)))
 (let (($x3441 (= cell_9_2 5)))
 (let (($x1307 (= cell_9_2 4)))
 (let (($x1175 (= cell_9_2 3)))
 (let (($x1044 (= cell_9_2 2)))
 (let (($x2056 (= cell_9_2 1)))
 (or $x2056 $x1044 $x1175 $x1307 $x3441 $x1582 $x535 $x1086 $x117)))))))))))
(assert
 (let (($x2077 (= cell_1_3 9)))
 (let (($x3496 (= cell_1_3 8)))
 (let (($x1770 (= cell_1_3 7)))
 (let (($x1427 (= cell_1_3 6)))
 (let (($x7524 (= cell_1_3 5)))
 (let (($x683 (= cell_1_3 4)))
 (let (($x6776 (= cell_1_3 3)))
 (let (($x2713 (= cell_1_3 2)))
 (let (($x187 (= cell_1_3 1)))
 (or $x187 $x2713 $x6776 $x683 $x7524 $x1427 $x1770 $x3496 $x2077)))))))))))
(assert
 (let (($x1222 (= cell_2_3 1)))
 (or $x1222 (= cell_2_3 2) (= cell_2_3 3) (= cell_2_3 4) (= cell_2_3 5) (= cell_2_3 6) (= cell_2_3 7) (= cell_2_3 8) (= cell_2_3 9))))
(assert
 (let (($x1899 (= cell_3_3 9)))
 (let (($x3835 (= cell_3_3 8)))
 (let (($x1501 (= cell_3_3 7)))
 (let (($x7495 (= cell_3_3 6)))
 (let (($x2088 (= cell_3_3 5)))
 (let (($x1732 (= cell_3_3 4)))
 (let (($x2743 (= cell_3_3 3)))
 (let (($x1830 (= cell_3_3 2)))
 (let (($x7844 (= cell_3_3 1)))
 (or $x7844 $x1830 $x2743 $x1732 $x2088 $x7495 $x1501 $x3835 $x1899)))))))))))
(assert
 (let (($x610 (= cell_4_3 2)))
 (let (($x2208 (= cell_4_3 1)))
 (or $x2208 $x610 (= cell_4_3 3) (= cell_4_3 4) (= cell_4_3 5) (= cell_4_3 6) (= cell_4_3 7) (= cell_4_3 8) (= cell_4_3 9)))))
(assert
 (let (($x801 (= cell_5_3 9)))
 (let (($x3044 (= cell_5_3 8)))
 (let (($x490 (= cell_5_3 7)))
 (let (($x3600 (= cell_5_3 6)))
 (let (($x585 (= cell_5_3 5)))
 (let (($x705 (= cell_5_3 4)))
 (let (($x1577 (= cell_5_3 3)))
 (let (($x300 (= cell_5_3 2)))
 (let (($x915 (= cell_5_3 1)))
 (or $x915 $x300 $x1577 $x705 $x585 $x3600 $x490 $x3044 $x801)))))))))))
(assert
 (let (($x2330 (= cell_6_3 9)))
 (let (($x7538 (= cell_6_3 8)))
 (let (($x2271 (= cell_6_3 7)))
 (let (($x1850 (= cell_6_3 6)))
 (let (($x1594 (= cell_6_3 5)))
 (let (($x3080 (= cell_6_3 4)))
 (let (($x2767 (= cell_6_3 3)))
 (let (($x6804 (= cell_6_3 2)))
 (let (($x2498 (= cell_6_3 1)))
 (or $x2498 $x6804 $x2767 $x3080 $x1594 $x1850 $x2271 $x7538 $x2330)))))))))))
(assert
 (let (($x2355 (= cell_7_3 9)))
 (let (($x1176 (= cell_7_3 8)))
 (let (($x349 (= cell_7_3 7)))
 (let (($x482 (= cell_7_3 6)))
 (let (($x7326 (= cell_7_3 5)))
 (let (($x7404 (= cell_7_3 4)))
 (let (($x340 (= cell_7_3 3)))
 (let (($x7340 (= cell_7_3 2)))
 (let (($x749 (= cell_7_3 1)))
 (or $x749 $x7340 $x340 $x7404 $x7326 $x482 $x349 $x1176 $x2355)))))))))))
(assert
 (let (($x2013 (= cell_8_3 9)))
 (let (($x2004 (= cell_8_3 8)))
 (let (($x2064 (= cell_8_3 7)))
 (let (($x3906 (= cell_8_3 6)))
 (let (($x573 (= cell_8_3 5)))
 (let (($x286 (= cell_8_3 4)))
 (let (($x518 (= cell_8_3 3)))
 (let (($x1462 (= cell_8_3 2)))
 (let (($x4228 (= cell_8_3 1)))
 (or $x4228 $x1462 $x518 $x286 $x573 $x3906 $x2064 $x2004 $x2013)))))))))))
(assert
 (let (($x2960 (= cell_9_3 9)))
 (let (($x540 (= cell_9_3 8)))
 (let (($x2559 (= cell_9_3 7)))
 (let (($x1867 (= cell_9_3 6)))
 (let (($x1629 (= cell_9_3 5)))
 (let (($x740 (= cell_9_3 4)))
 (let (($x3968 (= cell_9_3 3)))
 (let (($x3762 (= cell_9_3 2)))
 (let (($x1417 (= cell_9_3 1)))
 (or $x1417 $x3762 $x3968 $x740 $x1629 $x1867 $x2559 $x540 $x2960)))))))))))
(assert
 (let (($x1553 (= cell_1_4 9)))
 (let (($x310 (= cell_1_4 8)))
 (let (($x516 (= cell_1_4 7)))
 (let (($x581 (= cell_1_4 6)))
 (let (($x847 (= cell_1_4 5)))
 (let (($x29 (= cell_1_4 4)))
 (let (($x1473 (= cell_1_4 3)))
 (let (($x171 (= cell_1_4 2)))
 (let (($x3574 (= cell_1_4 1)))
 (or $x3574 $x171 $x1473 $x29 $x847 $x581 $x516 $x310 $x1553)))))))))))
(assert
 (let (($x4049 (= cell_2_4 9)))
 (let (($x1735 (= cell_2_4 8)))
 (let (($x1977 (= cell_2_4 7)))
 (let (($x7370 (= cell_2_4 6)))
 (let (($x738 (= cell_2_4 5)))
 (let (($x298 (= cell_2_4 4)))
 (let (($x3406 (= cell_2_4 3)))
 (let (($x1676 (= cell_2_4 2)))
 (let (($x1889 (= cell_2_4 1)))
 (or $x1889 $x1676 $x3406 $x298 $x738 $x7370 $x1977 $x1735 $x4049)))))))))))
(assert
 (let (($x7884 (= cell_3_4 9)))
 (let (($x3412 (= cell_3_4 8)))
 (let (($x285 (= cell_3_4 7)))
 (let (($x2321 (= cell_3_4 6)))
 (let (($x7464 (= cell_3_4 5)))
 (let (($x1906 (= cell_3_4 4)))
 (let (($x933 (= cell_3_4 3)))
 (let (($x3180 (= cell_3_4 2)))
 (let (($x215 (= cell_3_4 1)))
 (or $x215 $x3180 $x933 $x1906 $x7464 $x2321 $x285 $x3412 $x7884)))))))))))
(assert
 (let (($x1049 (= cell_4_4 9)))
 (let (($x894 (= cell_4_4 8)))
 (let (($x3731 (= cell_4_4 7)))
 (let (($x1673 (= cell_4_4 6)))
 (let (($x3231 (= cell_4_4 5)))
 (let (($x2792 (= cell_4_4 4)))
 (let (($x691 (= cell_4_4 3)))
 (let (($x1480 (= cell_4_4 2)))
 (let (($x659 (= cell_4_4 1)))
 (or $x659 $x1480 $x691 $x2792 $x3231 $x1673 $x3731 $x894 $x1049)))))))))))
(assert
 (let (($x1431 (= cell_5_4 9)))
 (let (($x651 (= cell_5_4 8)))
 (let (($x2740 (= cell_5_4 7)))
 (let (($x3156 (= cell_5_4 6)))
 (let (($x155 (= cell_5_4 5)))
 (let (($x3359 (= cell_5_4 4)))
 (let (($x4153 (= cell_5_4 3)))
 (let (($x1601 (= cell_5_4 2)))
 (let (($x2782 (= cell_5_4 1)))
 (or $x2782 $x1601 $x4153 $x3359 $x155 $x3156 $x2740 $x651 $x1431)))))))))))
(assert
 (let (($x757 (= cell_6_4 9)))
 (let (($x1690 (= cell_6_4 8)))
 (let (($x953 (= cell_6_4 7)))
 (let (($x868 (= cell_6_4 6)))
 (let (($x400 (= cell_6_4 5)))
 (let (($x1543 (= cell_6_4 4)))
 (let (($x2488 (= cell_6_4 3)))
 (let (($x934 (= cell_6_4 2)))
 (let (($x7651 (= cell_6_4 1)))
 (or $x7651 $x934 $x2488 $x1543 $x400 $x868 $x953 $x1690 $x757)))))))))))
(assert
 (let (($x1209 (= cell_7_4 9)))
 (let (($x12 (= cell_7_4 8)))
 (let (($x355 (= cell_7_4 7)))
 (let (($x205 (= cell_7_4 6)))
 (let (($x826 (= cell_7_4 5)))
 (let (($x3703 (= cell_7_4 4)))
 (let (($x3685 (= cell_7_4 3)))
 (let (($x559 (= cell_7_4 2)))
 (let (($x4150 (= cell_7_4 1)))
 (or $x4150 $x559 $x3685 $x3703 $x826 $x205 $x355 $x12 $x1209)))))))))))
(assert
 (let (($x537 (= cell_8_4 1)))
 (or $x537 (= cell_8_4 2) (= cell_8_4 3) (= cell_8_4 4) (= cell_8_4 5) (= cell_8_4 6) (= cell_8_4 7) (= cell_8_4 8) (= cell_8_4 9))))
(assert
 (let (($x1182 (= cell_9_4 9)))
 (let (($x2038 (= cell_9_4 8)))
 (let (($x7490 (= cell_9_4 7)))
 (let (($x4174 (= cell_9_4 6)))
 (let (($x8009 (= cell_9_4 5)))
 (let (($x3129 (= cell_9_4 4)))
 (let (($x2598 (= cell_9_4 3)))
 (let (($x910 (= cell_9_4 2)))
 (let (($x3324 (= cell_9_4 1)))
 (or $x3324 $x910 $x2598 $x3129 $x8009 $x4174 $x7490 $x2038 $x1182)))))))))))
(assert
 (let (($x2716 (= cell_1_5 9)))
 (let (($x1334 (= cell_1_5 8)))
 (let (($x1386 (= cell_1_5 7)))
 (let (($x3757 (= cell_1_5 6)))
 (let (($x3794 (= cell_1_5 5)))
 (let (($x2255 (= cell_1_5 4)))
 (let (($x2824 (= cell_1_5 3)))
 (let (($x2616 (= cell_1_5 2)))
 (let (($x50 (= cell_1_5 1)))
 (or $x50 $x2616 $x2824 $x2255 $x3794 $x3757 $x1386 $x1334 $x2716)))))))))))
(assert
 (let (($x775 (= cell_2_5 9)))
 (let (($x642 (= cell_2_5 8)))
 (let (($x902 (= cell_2_5 7)))
 (let (($x2303 (= cell_2_5 6)))
 (let (($x2854 (= cell_2_5 5)))
 (let (($x1105 (= cell_2_5 4)))
 (let (($x2345 (= cell_2_5 3)))
 (let (($x1228 (= cell_2_5 2)))
 (let (($x1022 (= cell_2_5 1)))
 (or $x1022 $x1228 $x2345 $x1105 $x2854 $x2303 $x902 $x642 $x775)))))))))))
(assert
 (let (($x3225 (= cell_3_5 1)))
 (or $x3225 (= cell_3_5 2) (= cell_3_5 3) (= cell_3_5 4) (= cell_3_5 5) (= cell_3_5 6) (= cell_3_5 7) (= cell_3_5 8) (= cell_3_5 9))))
(assert
 (let (($x655 (= cell_4_5 9)))
 (let (($x2326 (= cell_4_5 8)))
 (let (($x3318 (= cell_4_5 7)))
 (let (($x869 (= cell_4_5 6)))
 (let (($x2701 (= cell_4_5 5)))
 (let (($x1660 (= cell_4_5 4)))
 (let (($x632 (= cell_4_5 3)))
 (let (($x2054 (= cell_4_5 2)))
 (let (($x3341 (= cell_4_5 1)))
 (or $x3341 $x2054 $x632 $x1660 $x2701 $x869 $x3318 $x2326 $x655)))))))))))
(assert
 (let (($x1408 (= cell_5_5 9)))
 (let (($x8026 (= cell_5_5 8)))
 (let (($x158 (= cell_5_5 7)))
 (let (($x2620 (= cell_5_5 6)))
 (let (($x3459 (= cell_5_5 5)))
 (let (($x441 (= cell_5_5 4)))
 (let (($x7 (= cell_5_5 3)))
 (let (($x4190 (= cell_5_5 2)))
 (let (($x945 (= cell_5_5 1)))
 (or $x945 $x4190 $x7 $x441 $x3459 $x2620 $x158 $x8026 $x1408)))))))))))
(assert
 (let (($x859 (= cell_6_5 9)))
 (let (($x19 (= cell_6_5 8)))
 (let (($x763 (= cell_6_5 7)))
 (let (($x2630 (= cell_6_5 6)))
 (let (($x2114 (= cell_6_5 5)))
 (let (($x2318 (= cell_6_5 4)))
 (let (($x587 (= cell_6_5 3)))
 (let (($x911 (= cell_6_5 2)))
 (let (($x3679 (= cell_6_5 1)))
 (or $x3679 $x911 $x587 $x2318 $x2114 $x2630 $x763 $x19 $x859)))))))))))
(assert
 (let (($x403 (= cell_7_5 9)))
 (let (($x2814 (= cell_7_5 8)))
 (let (($x3354 (= cell_7_5 7)))
 (let (($x88 (= cell_7_5 6)))
 (let (($x2794 (= cell_7_5 5)))
 (let (($x3632 (= cell_7_5 4)))
 (let (($x348 (= cell_7_5 3)))
 (let (($x1466 (= cell_7_5 2)))
 (let (($x1083 (= cell_7_5 1)))
 (or $x1083 $x1466 $x348 $x3632 $x2794 $x88 $x3354 $x2814 $x403)))))))))))
(assert
 (let (($x2419 (= cell_8_5 1)))
 (or $x2419 (= cell_8_5 2) (= cell_8_5 3) (= cell_8_5 4) (= cell_8_5 5) (= cell_8_5 6) (= cell_8_5 7) (= cell_8_5 8) (= cell_8_5 9))))
(assert
 (let (($x1448 (= cell_9_5 9)))
 (let (($x1769 (= cell_9_5 8)))
 (let (($x2649 (= cell_9_5 7)))
 (let (($x3741 (= cell_9_5 6)))
 (let (($x629 (= cell_9_5 5)))
 (let (($x4118 (= cell_9_5 4)))
 (let (($x3919 (= cell_9_5 3)))
 (let (($x206 (= cell_9_5 2)))
 (let (($x1766 (= cell_9_5 1)))
 (or $x1766 $x206 $x3919 $x4118 $x629 $x3741 $x2649 $x1769 $x1448)))))))))))
(assert
 (let (($x2386 (= cell_1_6 9)))
 (let (($x3002 (= cell_1_6 8)))
 (let (($x491 (= cell_1_6 7)))
 (let (($x2005 (= cell_1_6 6)))
 (let (($x7970 (= cell_1_6 5)))
 (let (($x2545 (= cell_1_6 4)))
 (let (($x2486 (= cell_1_6 3)))
 (let (($x1966 (= cell_1_6 2)))
 (let (($x2428 (= cell_1_6 1)))
 (or $x2428 $x1966 $x2486 $x2545 $x7970 $x2005 $x491 $x3002 $x2386)))))))))))
(assert
 (let (($x1332 (= cell_2_6 9)))
 (let (($x2763 (= cell_2_6 8)))
 (let (($x875 (= cell_2_6 7)))
 (let (($x1270 (= cell_2_6 6)))
 (let (($x1866 (= cell_2_6 5)))
 (let (($x960 (= cell_2_6 4)))
 (let (($x1186 (= cell_2_6 3)))
 (let (($x2257 (= cell_2_6 2)))
 (let (($x3777 (= cell_2_6 1)))
 (or $x3777 $x2257 $x1186 $x960 $x1866 $x1270 $x875 $x2763 $x1332)))))))))))
(assert
 (let (($x3167 (= cell_3_6 2)))
 (or (= cell_3_6 1) $x3167 (= cell_3_6 3) (= cell_3_6 4) (= cell_3_6 5) (= cell_3_6 6) (= cell_3_6 7) (= cell_3_6 8) (= cell_3_6 9))))
(assert
 (let (($x2059 (= cell_4_6 9)))
 (let (($x1862 (= cell_4_6 8)))
 (let (($x522 (= cell_4_6 7)))
 (let (($x2023 (= cell_4_6 6)))
 (let (($x2424 (= cell_4_6 5)))
 (let (($x3089 (= cell_4_6 4)))
 (let (($x2560 (= cell_4_6 3)))
 (let (($x468 (= cell_4_6 2)))
 (let (($x2383 (= cell_4_6 1)))
 (or $x2383 $x468 $x2560 $x3089 $x2424 $x2023 $x522 $x1862 $x2059)))))))))))
(assert
 (let (($x3088 (= cell_5_6 9)))
 (let (($x2119 (= cell_5_6 8)))
 (let (($x2265 (= cell_5_6 7)))
 (let (($x674 (= cell_5_6 6)))
 (let (($x2057 (= cell_5_6 5)))
 (let (($x781 (= cell_5_6 4)))
 (let (($x2983 (= cell_5_6 3)))
 (let (($x1461 (= cell_5_6 2)))
 (let (($x4068 (= cell_5_6 1)))
 (or $x4068 $x1461 $x2983 $x781 $x2057 $x674 $x2265 $x2119 $x3088)))))))))))
(assert
 (let (($x1469 (= cell_6_6 1)))
 (or $x1469 (= cell_6_6 2) (= cell_6_6 3) (= cell_6_6 4) (= cell_6_6 5) (= cell_6_6 6) (= cell_6_6 7) (= cell_6_6 8) (= cell_6_6 9))))
(assert
 (let (($x2821 (= cell_7_6 9)))
 (let (($x2933 (= cell_7_6 8)))
 (let (($x2882 (= cell_7_6 7)))
 (let (($x3439 (= cell_7_6 6)))
 (let (($x2450 (= cell_7_6 5)))
 (let (($x946 (= cell_7_6 4)))
 (let (($x983 (= cell_7_6 3)))
 (let (($x2811 (= cell_7_6 2)))
 (let (($x3532 (= cell_7_6 1)))
 (or $x3532 $x2811 $x983 $x946 $x2450 $x3439 $x2882 $x2933 $x2821)))))))))))
(assert
 (let (($x332 (= cell_8_6 2)))
 (let (($x3713 (= cell_8_6 1)))
 (or $x3713 $x332 (= cell_8_6 3) (= cell_8_6 4) (= cell_8_6 5) (= cell_8_6 6) (= cell_8_6 7) (= cell_8_6 8) (= cell_8_6 9)))))
(assert
 (let (($x3724 (= cell_9_6 9)))
 (let (($x1081 (= cell_9_6 8)))
 (let (($x1502 (= cell_9_6 7)))
 (let (($x566 (= cell_9_6 6)))
 (let (($x2663 (= cell_9_6 5)))
 (let (($x7047 (= cell_9_6 4)))
 (let (($x2610 (= cell_9_6 3)))
 (let (($x8002 (= cell_9_6 2)))
 (let (($x4101 (= cell_9_6 1)))
 (or $x4101 $x8002 $x2610 $x7047 $x2663 $x566 $x1502 $x1081 $x3724)))))))))))
(assert
 (let (($x1392 (= cell_1_7 2)))
 (or (= cell_1_7 1) $x1392 (= cell_1_7 3) (= cell_1_7 4) (= cell_1_7 5) (= cell_1_7 6) (= cell_1_7 7) (= cell_1_7 8) (= cell_1_7 9))))
(assert
 (let (($x2157 (= cell_2_7 9)))
 (let (($x974 (= cell_2_7 8)))
 (let (($x728 (= cell_2_7 7)))
 (let (($x2288 (= cell_2_7 6)))
 (let (($x795 (= cell_2_7 5)))
 (let (($x433 (= cell_2_7 4)))
 (let (($x2745 (= cell_2_7 3)))
 (let (($x1710 (= cell_2_7 2)))
 (let (($x201 (= cell_2_7 1)))
 (or $x201 $x1710 $x2745 $x433 $x795 $x2288 $x728 $x974 $x2157)))))))))))
(assert
 (let (($x1369 (= cell_3_7 9)))
 (let (($x3283 (= cell_3_7 8)))
 (let (($x3366 (= cell_3_7 7)))
 (let (($x3985 (= cell_3_7 6)))
 (let (($x2641 (= cell_3_7 5)))
 (let (($x3847 (= cell_3_7 4)))
 (let (($x746 (= cell_3_7 3)))
 (let (($x1496 (= cell_3_7 2)))
 (let (($x2282 (= cell_3_7 1)))
 (or $x2282 $x1496 $x746 $x3847 $x2641 $x3985 $x3366 $x3283 $x1369)))))))))))
(assert
 (let (($x1598 (= cell_4_7 9)))
 (let (($x762 (= cell_4_7 8)))
 (let (($x567 (= cell_4_7 7)))
 (let (($x1327 (= cell_4_7 6)))
 (let (($x70 (= cell_4_7 5)))
 (let (($x3380 (= cell_4_7 4)))
 (let (($x1815 (= cell_4_7 3)))
 (let (($x1990 (= cell_4_7 2)))
 (let (($x3157 (= cell_4_7 1)))
 (or $x3157 $x1990 $x1815 $x3380 $x70 $x1327 $x567 $x762 $x1598)))))))))))
(assert
 (let (($x703 (= cell_5_7 1)))
 (or $x703 (= cell_5_7 2) (= cell_5_7 3) (= cell_5_7 4) (= cell_5_7 5) (= cell_5_7 6) (= cell_5_7 7) (= cell_5_7 8) (= cell_5_7 9))))
(assert
 (let (($x717 (= cell_6_7 2)))
 (let (($x2698 (= cell_6_7 1)))
 (or $x2698 $x717 (= cell_6_7 3) (= cell_6_7 4) (= cell_6_7 5) (= cell_6_7 6) (= cell_6_7 7) (= cell_6_7 8) (= cell_6_7 9)))))
(assert
 (let (($x1568 (= cell_7_7 9)))
 (let (($x3749 (= cell_7_7 8)))
 (let (($x2465 (= cell_7_7 7)))
 (let (($x2634 (= cell_7_7 6)))
 (let (($x1645 (= cell_7_7 5)))
 (let (($x3121 (= cell_7_7 4)))
 (let (($x2037 (= cell_7_7 3)))
 (let (($x190 (= cell_7_7 2)))
 (let (($x1110 (= cell_7_7 1)))
 (or $x1110 $x190 $x2037 $x3121 $x1645 $x2634 $x2465 $x3749 $x1568)))))))))))
(assert
 (let (($x627 (= cell_8_7 9)))
 (let (($x412 (= cell_8_7 8)))
 (let (($x6828 (= cell_8_7 7)))
 (let (($x2738 (= cell_8_7 6)))
 (let (($x3705 (= cell_8_7 5)))
 (let (($x1250 (= cell_8_7 4)))
 (let (($x897 (= cell_8_7 3)))
 (let (($x6733 (= cell_8_7 2)))
 (let (($x1716 (= cell_8_7 1)))
 (or $x1716 $x6733 $x897 $x1250 $x3705 $x2738 $x6828 $x412 $x627)))))))))))
(assert
 (let (($x1587 (= cell_9_7 9)))
 (let (($x1467 (= cell_9_7 8)))
 (let (($x6711 (= cell_9_7 7)))
 (let (($x442 (= cell_9_7 6)))
 (let (($x3509 (= cell_9_7 5)))
 (let (($x2771 (= cell_9_7 4)))
 (let (($x1842 (= cell_9_7 3)))
 (let (($x682 (= cell_9_7 2)))
 (let (($x1558 (= cell_9_7 1)))
 (or $x1558 $x682 $x1842 $x2771 $x3509 $x442 $x6711 $x1467 $x1587)))))))))))
(assert
 (let (($x3445 (= cell_1_8 1)))
 (or $x3445 (= cell_1_8 2) (= cell_1_8 3) (= cell_1_8 4) (= cell_1_8 5) (= cell_1_8 6) (= cell_1_8 7) (= cell_1_8 8) (= cell_1_8 9))))
(assert
 (let (($x1271 (= cell_2_8 2)))
 (let (($x7866 (= cell_2_8 1)))
 (or $x7866 $x1271 (= cell_2_8 3) (= cell_2_8 4) (= cell_2_8 5) (= cell_2_8 6) (= cell_2_8 7) (= cell_2_8 8) (= cell_2_8 9)))))
(assert
 (let (($x1443 (= cell_3_8 2)))
 (let (($x2686 (= cell_3_8 1)))
 (or $x2686 $x1443 (= cell_3_8 3) (= cell_3_8 4) (= cell_3_8 5) (= cell_3_8 6) (= cell_3_8 7) (= cell_3_8 8) (= cell_3_8 9)))))
(assert
 (let (($x2068 (= cell_4_8 9)))
 (let (($x6689 (= cell_4_8 8)))
 (let (($x7451 (= cell_4_8 7)))
 (let (($x4211 (= cell_4_8 6)))
 (let (($x3386 (= cell_4_8 5)))
 (let (($x1907 (= cell_4_8 4)))
 (let (($x192 (= cell_4_8 3)))
 (let (($x454 (= cell_4_8 2)))
 (let (($x1422 (= cell_4_8 1)))
 (or $x1422 $x454 $x192 $x1907 $x3386 $x4211 $x7451 $x6689 $x2068)))))))))))
(assert
 (let (($x452 (= cell_5_8 9)))
 (let (($x6809 (= cell_5_8 8)))
 (let (($x2076 (= cell_5_8 7)))
 (let (($x8016 (= cell_5_8 6)))
 (let (($x584 (= cell_5_8 5)))
 (let (($x3251 (= cell_5_8 4)))
 (let (($x2238 (= cell_5_8 3)))
 (let (($x2873 (= cell_5_8 2)))
 (let (($x2043 (= cell_5_8 1)))
 (or $x2043 $x2873 $x2238 $x3251 $x584 $x8016 $x2076 $x6809 $x452)))))))))))
(assert
 (let (($x1518 (= cell_6_8 2)))
 (let (($x3766 (= cell_6_8 1)))
 (or $x3766 $x1518 (= cell_6_8 3) (= cell_6_8 4) (= cell_6_8 5) (= cell_6_8 6) (= cell_6_8 7) (= cell_6_8 8) (= cell_6_8 9)))))
(assert
 (let (($x1792 (= cell_7_8 9)))
 (let (($x2920 (= cell_7_8 8)))
 (let (($x6820 (= cell_7_8 7)))
 (let (($x1434 (= cell_7_8 6)))
 (let (($x1142 (= cell_7_8 5)))
 (let (($x3184 (= cell_7_8 4)))
 (let (($x3126 (= cell_7_8 3)))
 (let (($x370 (= cell_7_8 2)))
 (let (($x2421 (= cell_7_8 1)))
 (or $x2421 $x370 $x3126 $x3184 $x1142 $x1434 $x6820 $x2920 $x1792)))))))))))
(assert
 (let (($x279 (= cell_8_8 9)))
 (let (($x595 (= cell_8_8 8)))
 (let (($x989 (= cell_8_8 7)))
 (let (($x6981 (= cell_8_8 6)))
 (let (($x4198 (= cell_8_8 5)))
 (let (($x3394 (= cell_8_8 4)))
 (let (($x1235 (= cell_8_8 3)))
 (let (($x1161 (= cell_8_8 2)))
 (let (($x2838 (= cell_8_8 1)))
 (or $x2838 $x1161 $x1235 $x3394 $x4198 $x6981 $x989 $x595 $x279)))))))))))
(assert
 (let (($x1893 (= cell_9_8 9)))
 (let (($x575 (= cell_9_8 8)))
 (let (($x3440 (= cell_9_8 7)))
 (let (($x1103 (= cell_9_8 6)))
 (let (($x2980 (= cell_9_8 5)))
 (let (($x2605 (= cell_9_8 4)))
 (let (($x276 (= cell_9_8 3)))
 (let (($x2136 (= cell_9_8 2)))
 (let (($x3373 (= cell_9_8 1)))
 (or $x3373 $x2136 $x276 $x2605 $x2980 $x1103 $x3440 $x575 $x1893)))))))))))
(assert
 (let (($x3038 (= cell_1_9 9)))
 (let (($x750 (= cell_1_9 8)))
 (let (($x74 (= cell_1_9 7)))
 (let (($x2681 (= cell_1_9 6)))
 (let (($x2569 (= cell_1_9 5)))
 (let (($x2361 (= cell_1_9 4)))
 (let (($x288 (= cell_1_9 3)))
 (let (($x4092 (= cell_1_9 2)))
 (let (($x1510 (= cell_1_9 1)))
 (or $x1510 $x4092 $x288 $x2361 $x2569 $x2681 $x74 $x750 $x3038)))))))))))
(assert
 (let (($x721 (= cell_2_9 9)))
 (let (($x991 (= cell_2_9 8)))
 (let (($x661 (= cell_2_9 7)))
 (let (($x7835 (= cell_2_9 6)))
 (let (($x357 (= cell_2_9 5)))
 (let (($x1475 (= cell_2_9 4)))
 (let (($x3547 (= cell_2_9 3)))
 (let (($x3939 (= cell_2_9 2)))
 (let (($x385 (= cell_2_9 1)))
 (or $x385 $x3939 $x3547 $x1475 $x357 $x7835 $x661 $x991 $x721)))))))))))
(assert
 (let (($x2214 (= cell_3_9 9)))
 (let (($x7332 (= cell_3_9 8)))
 (let (($x6759 (= cell_3_9 7)))
 (let (($x1296 (= cell_3_9 6)))
 (let (($x7761 (= cell_3_9 5)))
 (let (($x2961 (= cell_3_9 4)))
 (let (($x3190 (= cell_3_9 3)))
 (let (($x262 (= cell_3_9 2)))
 (let (($x476 (= cell_3_9 1)))
 (or $x476 $x262 $x3190 $x2961 $x7761 $x1296 $x6759 $x7332 $x2214)))))))))))
(assert
 (let (($x3079 (= cell_4_9 9)))
 (let (($x1584 (= cell_4_9 8)))
 (let (($x1591 (= cell_4_9 7)))
 (let (($x1082 (= cell_4_9 6)))
 (let (($x3837 (= cell_4_9 5)))
 (let (($x3384 (= cell_4_9 4)))
 (let (($x2478 (= cell_4_9 3)))
 (let (($x3274 (= cell_4_9 2)))
 (let (($x519 (= cell_4_9 1)))
 (or $x519 $x3274 $x2478 $x3384 $x3837 $x1082 $x1591 $x1584 $x3079)))))))))))
(assert
 (let (($x473 (= cell_5_9 2)))
 (or (= cell_5_9 1) $x473 (= cell_5_9 3) (= cell_5_9 4) (= cell_5_9 5) (= cell_5_9 6) (= cell_5_9 7) (= cell_5_9 8) (= cell_5_9 9))))
(assert
 (let (($x3391 (= cell_6_9 9)))
 (let (($x3577 (= cell_6_9 8)))
 (let (($x334 (= cell_6_9 7)))
 (let (($x1173 (= cell_6_9 6)))
 (let (($x436 (= cell_6_9 5)))
 (let (($x2367 (= cell_6_9 4)))
 (let (($x352 (= cell_6_9 3)))
 (let (($x1181 (= cell_6_9 2)))
 (let (($x3179 (= cell_6_9 1)))
 (or $x3179 $x1181 $x352 $x2367 $x436 $x1173 $x334 $x3577 $x3391)))))))))))
(assert
 (let (($x235 (= cell_7_9 9)))
 (let (($x6767 (= cell_7_9 8)))
 (let (($x3973 (= cell_7_9 7)))
 (let (($x1554 (= cell_7_9 6)))
 (let (($x951 (= cell_7_9 5)))
 (let (($x3520 (= cell_7_9 4)))
 (let (($x2548 (= cell_7_9 3)))
 (let (($x3264 (= cell_7_9 2)))
 (let (($x2631 (= cell_7_9 1)))
 (or $x2631 $x3264 $x2548 $x3520 $x951 $x1554 $x3973 $x6767 $x235)))))))))))
(assert
 (let (($x1919 (= cell_8_9 9)))
 (let (($x2472 (= cell_8_9 8)))
 (let (($x7322 (= cell_8_9 7)))
 (let (($x673 (= cell_8_9 6)))
 (let (($x1413 (= cell_8_9 5)))
 (let (($x1925 (= cell_8_9 4)))
 (let (($x6963 (= cell_8_9 3)))
 (let (($x4121 (= cell_8_9 2)))
 (let (($x2676 (= cell_8_9 1)))
 (or $x2676 $x4121 $x6963 $x1925 $x1413 $x673 $x7322 $x2472 $x1919)))))))))))
(assert
 (let (($x1312 (= cell_9_9 1)))
 (or $x1312 (= cell_9_9 2) (= cell_9_9 3) (= cell_9_9 4) (= cell_9_9 5) (= cell_9_9 6) (= cell_9_9 7) (= cell_9_9 8) (= cell_9_9 9))))
(assert
 (and (distinct cell_1_1 cell_1_2 cell_1_3 cell_1_4 cell_1_5 cell_1_6 cell_1_7 cell_1_8 cell_1_9) true))
(assert
 (and (distinct cell_2_1 cell_2_2 cell_2_3 cell_2_4 cell_2_5 cell_2_6 cell_2_7 cell_2_8 cell_2_9) true))
(assert
 (and (distinct cell_3_1 cell_3_2 cell_3_3 cell_3_4 cell_3_5 cell_3_6 cell_3_7 cell_3_8 cell_3_9) true))
(assert
 (and (distinct cell_4_1 cell_4_2 cell_4_3 cell_4_4 cell_4_5 cell_4_6 cell_4_7 cell_4_8 cell_4_9) true))
(assert
 (and (distinct cell_5_1 cell_5_2 cell_5_3 cell_5_4 cell_5_5 cell_5_6 cell_5_7 cell_5_8 cell_5_9) true))
(assert
 (and (distinct cell_6_1 cell_6_2 cell_6_3 cell_6_4 cell_6_5 cell_6_6 cell_6_7 cell_6_8 cell_6_9) true))
(assert
 (and (distinct cell_7_1 cell_7_2 cell_7_3 cell_7_4 cell_7_5 cell_7_6 cell_7_7 cell_7_8 cell_7_9) true))
(assert
 (and (distinct cell_8_1 cell_8_2 cell_8_3 cell_8_4 cell_8_5 cell_8_6 cell_8_7 cell_8_8 cell_8_9) true))
(assert
 (and (distinct cell_9_1 cell_9_2 cell_9_3 cell_9_4 cell_9_5 cell_9_6 cell_9_7 cell_9_8 cell_9_9) true))
(assert
 (and (distinct cell_1_1 cell_2_1 cell_3_1 cell_4_1 cell_5_1 cell_6_1 cell_7_1 cell_8_1 cell_9_1) true))
(assert
 (and (distinct cell_1_2 cell_2_2 cell_3_2 cell_4_2 cell_5_2 cell_6_2 cell_7_2 cell_8_2 cell_9_2) true))
(assert
 (and (distinct cell_1_3 cell_2_3 cell_3_3 cell_4_3 cell_5_3 cell_6_3 cell_7_3 cell_8_3 cell_9_3) true))
(assert
 (and (distinct cell_1_4 cell_2_4 cell_3_4 cell_4_4 cell_5_4 cell_6_4 cell_7_4 cell_8_4 cell_9_4) true))
(assert
 (and (distinct cell_1_5 cell_2_5 cell_3_5 cell_4_5 cell_5_5 cell_6_5 cell_7_5 cell_8_5 cell_9_5) true))
(assert
 (and (distinct cell_1_6 cell_2_6 cell_3_6 cell_4_6 cell_5_6 cell_6_6 cell_7_6 cell_8_6 cell_9_6) true))
(assert
 (and (distinct cell_1_7 cell_2_7 cell_3_7 cell_4_7 cell_5_7 cell_6_7 cell_7_7 cell_8_7 cell_9_7) true))
(assert
 (and (distinct cell_1_8 cell_2_8 cell_3_8 cell_4_8 cell_5_8 cell_6_8 cell_7_8 cell_8_8 cell_9_8) true))
(assert
 (and (distinct cell_1_9 cell_2_9 cell_3_9 cell_4_9 cell_5_9 cell_6_9 cell_7_9 cell_8_9 cell_9_9) true))
(assert
 (and (distinct cell_1_1 cell_1_2 cell_1_3 cell_2_1 cell_2_2 cell_2_3 cell_3_1 cell_3_2 cell_3_3) true))
(assert
 (and (distinct cell_1_4 cell_1_5 cell_1_6 cell_2_4 cell_2_5 cell_2_6 cell_3_4 cell_3_5 cell_3_6) true))
(assert
 (and (distinct cell_1_7 cell_1_8 cell_1_9 cell_2_7 cell_2_8 cell_2_9 cell_3_7 cell_3_8 cell_3_9) true))
(assert
 (and (distinct cell_4_1 cell_4_2 cell_4_3 cell_5_1 cell_5_2 cell_5_3 cell_6_1 cell_6_2 cell_6_3) true))
(assert
 (and (distinct cell_4_4 cell_4_5 cell_4_6 cell_5_4 cell_5_5 cell_5_6 cell_6_4 cell_6_5 cell_6_6) true))
(assert
 (and (distinct cell_4_7 cell_4_8 cell_4_9 cell_5_7 cell_5_8 cell_5_9 cell_6_7 cell_6_8 cell_6_9) true))
(assert
 (and (distinct cell_7_1 cell_7_2 cell_7_3 cell_8_1 cell_8_2 cell_8_3 cell_9_1 cell_9_2 cell_9_3) true))
(assert
 (and (distinct cell_7_4 cell_7_5 cell_7_6 cell_8_4 cell_8_5 cell_8_6 cell_9_4 cell_9_5 cell_9_6) true))
(assert
 (and (distinct cell_7_7 cell_7_8 cell_7_9 cell_8_7 cell_8_8 cell_8_9 cell_9_7 cell_9_8 cell_9_9) true))
(assert
 (let (($x3845 (and (distinct cell_5_9 cell_6_8 cell_7_7 cell_8_6) true)))
 (let (($x150 (and (distinct cell_2_9 cell_3_8 cell_4_7 cell_5_6 cell_6_5 cell_7_4 cell_8_3 cell_9_2) true)))
 (let (($x1117 (and (distinct cell_1_8 cell_2_7 cell_3_6 cell_4_5 cell_5_4 cell_6_3 cell_7_2 cell_8_1) true)))
 (let (($x1098 (and (distinct cell_1_5 cell_2_4 cell_3_3 cell_4_2) true)))
 (let (($x3297 (and (distinct cell_5_1 cell_6_2 cell_7_3 cell_8_4) true)))
 (let (($x1883 (and (distinct cell_2_1 cell_3_2 cell_4_3 cell_5_4 cell_6_5 cell_7_6 cell_8_7 cell_9_8) true)))
 (let (($x975 (and (distinct cell_1_2 cell_2_3 cell_3_4 cell_4_5 cell_5_6 cell_6_7 cell_7_8 cell_8_9) true)))
 (let (($x253 (and (distinct cell_1_5 cell_2_6 cell_3_7 cell_4_8) true)))
 (and $x253 $x975 $x1883 $x3297 $x1098 $x1117 $x150 $x3845))))))))))
(assert
 (= cell_6_4 2))
(check-sat)
